60
1 0 1
3 0 3
3 1 4
4 0 4
4 2 3
5 1 2
5 2 6
5 4 7
6 1 6
6 2 4
7 1 2
7 3 6
7 4 1
7 5 2
8 1 5
8 2 1
8 5 6
8 6 7
9 0 5
9 1 1
9 4 3
9 5 1
9 7 7
9 8 7
10 0 2
10 2 1
10 3 2
10 5 1
10 6 7
10 7 5
10 8 7
10 9 3
11 3 1
11 5 2
11 7 1
11 9 7
12 2 7
12 3 6
12 8 4
12 11 4
13 0 7
13 5 3
13 8 4
13 10 6
13 11 3
14 0 3
14 5 5
14 6 1
14 8 7
15 0 3
15 1 3
15 2 7
15 3 5
15 5 3
15 7 1
16 0 6
16 6 3
16 7 1
16 9 4
16 10 6
16 11 1
16 12 2
16 14 3
16 15 5
17 3 1
17 4 2
17 6 1
17 9 6
17 10 6
17 13 4
17 14 5
17 15 1
18 0 3
18 5 3
18 6 2
18 7 5
18 8 3
18 9 5
18 11 1
18 12 7
18 16 6
19 2 5
19 3 7
19 7 5
19 8 4
19 9 2
19 12 7
19 15 7
19 17 1
20 0 6
20 2 7
20 3 5
20 4 7
20 5 1
20 9 1
20 13 3
20 14 5
20 16 3
20 17 7
20 18 3
20 19 5
21 1 2
21 5 1
21 6 6
21 10 7
21 12 5
21 15 2
21 16 4
21 18 2
21 19 3
22 0 4
22 1 7
22 2 1
22 4 4
22 5 6
22 8 3
22 9 6
22 10 2
22 13 2
22 14 3
22 15 1
22 16 5
22 17 7
22 21 4
23 1 7
23 5 6
23 7 5
23 8 5
23 9 3
23 12 7
23 13 6
23 14 3
23 15 2
23 17 1
23 20 1
24 2 7
24 3 3
24 4 4
24 5 7
24 7 6
24 14 3
24 16 7
24 17 7
24 19 1
24 20 7
24 21 3
24 22 5
25 0 5
25 1 4
25 4 2
25 5 3
25 7 1
25 8 6
25 10 5
25 11 2
25 12 3
25 13 6
25 15 6
25 16 5
25 17 1
25 18 7
25 20 2
25 22 5
25 24 2
26 0 5
26 3 1
26 6 7
26 7 3
26 8 1
26 9 5
26 10 1
26 12 4
26 14 3
26 15 7
26 19 4
26 23 6
26 24 2
26 25 7
27 3 7
27 4 6
27 5 4
27 6 5
27 7 2
27 8 4
27 9 6
27 13 1
27 14 6
27 15 6
27 16 5
27 18 7
27 24 2
27 26 5
28 0 6
28 1 7
28 2 7
28 3 5
28 6 6
28 7 3
28 9 1
28 12 6
28 14 3
28 16 7
28 20 1
28 22 3
28 25 7
28 27 4
29 0 6
29 1 1
29 2 4
29 3 3
29 4 5
29 5 2
29 6 7
29 11 7
29 12 6
29 14 7
29 17 1
29 18 6
29 21 4
29 26 4
29 27 4
29 28 7
30 0 5
30 2 2
30 5 4
30 8 3
30 9 6
30 12 1
30 13 3
30 14 5
30 16 2
30 19 3
30 21 6
30 24 4
30 25 6
30 27 2
30 28 6
30 29 2
31 1 1
31 2 2
31 3 4
31 4 4
31 5 5
31 9 4
31 13 2
31 15 3
31 16 5
31 22 2
31 23 6
31 27 4
31 29 7
32 0 6
32 3 5
32 9 1
32 15 4
32 21 2
32 22 6
32 24 1
32 29 7
32 30 5
33 0 4
33 2 1
33 5 3
33 6 7
33 7 7
33 9 4
33 10 1
33 11 1
33 13 3
33 14 3
33 15 7
33 16 6
33 18 3
33 19 4
33 21 3
33 22 1
33 23 3
33 27 4
33 29 3
33 30 6
33 31 7
34 0 5
34 1 7
34 2 1
34 7 6
34 8 6
34 9 3
34 10 3
34 11 1
34 17 6
34 18 4
34 20 1
34 21 5
34 22 3
34 23 3
34 25 3
34 26 1
34 27 6
34 32 2
35 0 3
35 5 5
35 6 2
35 7 4
35 9 5
35 10 7
35 12 7
35 13 7
35 16 4
35 17 1
35 20 7
35 23 5
35 24 2
35 25 3
35 30 4
35 32 7
36 1 7
36 3 6
36 4 7
36 8 1
36 9 6
36 10 1
36 11 2
36 12 5
36 15 1
36 16 5
36 18 3
36 21 2
36 22 4
36 25 4
36 26 5
36 28 4
36 34 5
36 35 6
37 2 5
37 6 1
37 8 4
37 10 2
37 11 6
37 12 1
37 13 7
37 14 4
37 16 5
37 18 2
37 19 3
37 20 5
37 22 1
37 25 5
37 26 4
37 27 2
37 28 6
37 30 1
37 32 5
37 33 3
37 34 5
38 0 4
38 2 2
38 3 5
38 4 4
38 5 7
38 6 7
38 7 3
38 9 2
38 10 6
38 11 6
38 12 6
38 14 6
38 15 6
38 18 6
38 20 1
38 23 3
38 26 5
38 29 5
38 31 3
38 36 2
39 0 3
39 3 2
39 7 3
39 8 7
39 10 4
39 13 1
39 14 2
39 16 4
39 17 3
39 18 4
39 20 2
39 21 5
39 23 7
39 24 7
39 25 3
39 26 6
39 28 5
39 29 1
39 31 2
39 34 6
39 37 2
40 0 2
40 1 2
40 3 5
40 6 5
40 8 7
40 9 6
40 15 3
40 17 2
40 18 7
40 19 1
40 20 5
40 21 4
40 22 5
40 23 4
40 25 3
40 27 4
40 29 2
40 31 4
40 32 1
40 33 2
40 34 7
40 36 1
40 37 2
40 38 5
40 39 2
41 1 2
41 2 4
41 4 6
41 5 1
41 7 7
41 11 5
41 12 4
41 17 6
41 18 6
41 19 4
41 20 1
41 21 6
41 23 6
41 27 3
41 30 1
41 32 7
41 34 2
41 36 3
41 38 3
41 40 1
42 0 7
42 1 7
42 2 4
42 3 1
42 4 3
42 5 3
42 7 6
42 14 4
42 15 3
42 16 6
42 20 5
42 23 6
42 24 4
42 25 5
42 26 5
42 27 4
42 28 3
42 31 3
42 33 7
42 34 4
42 35 6
42 38 4
42 39 4
42 41 6
43 1 5
43 2 2
43 6 1
43 10 6
43 11 7
43 12 1
43 15 1
43 19 3
43 21 2
43 22 6
43 23 5
43 24 6
43 25 7
43 26 1
43 32 1
43 34 5
43 36 5
43 39 6
44 1 7
44 2 6
44 3 3
44 4 6
44 8 1
44 9 1
44 14 4
44 16 7
44 17 6
44 20 3
44 21 2
44 25 1
44 26 4
44 27 4
44 28 4
44 29 2
44 30 4
44 32 5
44 37 7
44 39 7
44 40 5
45 5 5
45 9 2
45 10 2
45 13 6
45 15 5
45 21 7
45 23 7
45 24 3
45 25 3
45 26 2
45 29 6
45 30 4
45 34 4
45 35 1
45 36 6
45 39 5
45 43 4
45 44 5
46 0 6
46 1 4
46 2 6
46 3 2
46 5 2
46 6 1
46 7 6
46 9 2
46 10 3
46 12 1
46 14 1
46 15 4
46 16 5
46 17 7
46 21 5
46 22 7
46 23 5
46 33 4
46 36 3
46 37 5
46 39 5
46 41 5
46 42 5
46 44 3
47 0 2
47 1 5
47 3 7
47 4 6
47 5 6
47 6 2
47 9 6
47 12 3
47 13 6
47 14 3
47 16 7
47 18 5
47 21 5
47 23 7
47 24 5
47 26 4
47 27 1
47 29 4
47 31 4
47 32 4
47 34 6
47 36 7
47 40 2
47 41 6
47 43 1
47 45 6
47 46 7
48 2 6
48 4 7
48 5 6
48 8 6
48 13 7
48 14 6
48 15 3
48 17 1
48 18 4
48 19 3
48 21 3
48 22 1
48 24 3
48 25 3
48 26 6
48 27 1
48 30 1
48 33 2
48 37 4
48 40 2
48 41 2
48 42 6
48 43 6
48 44 3
48 46 5
49 1 1
49 2 6
49 4 2
49 5 2
49 6 3
49 11 4
49 13 6
49 14 7
49 15 5
49 17 2
49 18 7
49 21 1
49 23 3
49 26 2
49 27 6
49 28 1
49 30 3
49 31 2
49 35 5
49 37 3
49 38 3
49 39 3
49 40 5
49 44 2
49 46 1
49 47 1
50 0 1
50 1 2
50 2 1
50 3 7
50 5 3
50 6 4
50 8 1
50 9 5
50 12 1
50 14 6
50 15 2
50 16 3
50 17 3
50 19 6
50 22 6
50 24 3
50 28 3
50 29 6
50 31 2
50 36 3
50 37 4
50 43 6
50 44 3
50 48 6
50 49 1
51 0 5
51 2 4
51 4 7
51 5 7
51 7 2
51 10 7
51 11 3
51 12 2
51 15 3
51 24 1
51 27 3
51 28 1
51 30 2
51 31 4
51 33 5
51 34 6
51 35 2
51 37 6
51 38 2
51 39 5
51 41 2
51 44 3
51 45 1
51 46 4
51 49 7
51 50 7
52 0 4
52 2 2
52 5 3
52 8 5
52 9 4
52 10 1
52 12 7
52 14 5
52 16 3
52 17 5
52 18 4
52 19 2
52 20 1
52 22 3
52 23 6
52 25 2
52 31 5
52 35 1
52 37 4
52 40 3
52 41 7
52 43 3
52 46 6
53 0 2
53 5 3
53 6 5
53 8 6
53 10 1
53 11 6
53 12 1
53 13 1
53 15 6
53 16 6
53 17 7
53 18 5
53 19 4
53 20 1
53 21 3
53 25 3
53 26 7
53 27 4
53 30 1
53 33 6
53 34 3
53 36 4
53 37 1
53 38 2
53 40 5
53 41 7
53 43 2
53 44 5
53 51 1
53 52 2
54 4 4
54 5 5
54 6 3
54 9 3
54 10 1
54 11 5
54 12 1
54 14 3
54 16 1
54 18 6
54 22 2
54 23 7
54 25 1
54 30 4
54 31 7
54 33 1
54 35 7
54 38 2
54 40 6
54 41 2
54 42 2
54 45 6
54 47 7
54 49 1
54 50 3
54 51 4
54 52 7
55 0 4
55 2 4
55 5 7
55 6 4
55 11 6
55 13 6
55 14 5
55 15 7
55 16 7
55 19 3
55 20 4
55 21 2
55 22 3
55 26 2
55 31 7
55 32 4
55 33 7
55 34 1
55 35 4
55 36 3
55 37 7
55 38 7
55 40 3
55 42 5
55 45 1
55 47 2
55 48 3
55 49 6
55 50 2
55 51 4
55 53 1
56 2 5
56 3 2
56 5 2
56 6 3
56 9 5
56 11 2
56 13 5
56 14 4
56 15 1
56 16 3
56 17 3
56 24 6
56 27 2
56 28 1
56 30 2
56 31 3
56 32 1
56 34 6
56 36 5
56 37 5
56 38 5
56 40 4
56 41 4
56 42 2
56 45 5
56 46 2
56 47 2
56 48 7
56 49 6
56 50 1
56 51 6
56 52 7
57 1 5
57 2 7
57 3 7
57 4 4
57 5 4
57 6 3
57 9 2
57 10 2
57 11 5
57 13 7
57 16 7
57 17 5
57 18 1
57 20 4
57 24 7
57 26 6
57 27 4
57 28 4
57 30 5
57 31 6
57 35 5
57 41 4
57 42 4
57 43 2
57 44 5
57 45 2
57 46 7
57 51 2
57 53 5
57 55 3
57 56 4
58 1 3
58 2 1
58 3 4
58 4 6
58 7 1
58 12 5
58 15 6
58 17 1
58 19 2
58 21 2
58 24 3
58 27 1
58 33 7
58 34 7
58 35 6
58 39 2
58 45 4
58 46 3
58 47 4
58 48 5
58 49 1
58 50 6
58 52 5
58 53 1
58 55 5
58 56 4
58 57 5
59 0 7
59 1 6
59 2 5
59 4 3
59 5 4
59 6 2
59 8 1
59 10 4
59 12 3
59 13 6
59 14 5
59 16 7
59 19 5
59 21 1
59 22 4
59 27 5
59 28 5
59 30 4
59 31 6
59 33 3
59 34 3
59 38 4
59 39 7
59 40 5
59 41 3
59 45 1
59 47 4
59 49 1
59 52 6
59 53 4
59 55 2
59 57 4
59 58 4
